(set-info :source |printed by MathSAT|)
(declare-fun call_Age3.flby.next () Int)
(declare-fun flby () Int)
(declare-fun m () Int)
(declare-fun call_Age3.ite.next () Int)
(declare-fun call_Age2.age_of_p.next () Int)
(declare-fun call_Age3.age_of_p.next () Int)
(declare-fun param_q () Bool)
(declare-fun call_Age2.flby.next () Int)
(declare-fun call_Age.flby.next () Int)
(declare-fun call_Age2.age_of_p () Int)
(declare-fun _OK_ () Bool)
(declare-fun call_Sofar.flby () Bool)
(declare-fun call_Age.age_of_p () Int)
(declare-fun flby.next () Int)
(declare-fun call_Age.flby () Int)
(declare-fun param_p () Bool)
(declare-fun call_Age2.ite.next () Int)
(declare-fun call_Sofar.Sofar () Bool)
(declare-fun call_Sofar.Sofar.next () Bool)
(declare-fun call_Age3.flby () Int)
(declare-fun call_Age3.age_of_p () Int)
(declare-fun call_Age.age_of_p.next () Int)
(declare-fun call_Sofar.flby.next () Bool)
(declare-fun _OK_.next () Bool)
(declare-fun k.next () Int)
(declare-fun param_q.next () Bool)
(declare-fun env () Bool)
(declare-fun call_Age2.flby () Int)
(declare-fun flby2.next () Int)
(declare-fun k () Int)
(declare-fun env.next () Bool)
(declare-fun m.next () Int)
(declare-fun flby2 () Int)
(declare-fun call_Age.ite.next () Int)
(define-fun .def_322 () Bool (= call_Age3.flby.next call_Age3.age_of_p.next))
(define-fun .def_320 () Bool (= call_Sofar.flby.next call_Sofar.Sofar.next))
(define-fun .def_318 () Bool (= call_Age2.flby.next call_Age2.age_of_p.next))
(define-fun .def_316 () Bool (= call_Age.flby.next call_Age.age_of_p.next))
(define-fun .def_314 () Bool (= env.next call_Sofar.Sofar.next))
(define-fun .def_311 () Bool (= flby2.next m.next))
(define-fun .def_309 () Bool (= flby.next k.next))
(define-fun .def_303 () Int (* (- 1) call_Age3.age_of_p.next))
(define-fun .def_304 () Int (+ m.next .def_303))
(define-fun .def_305 () Int (+ k.next .def_304))
(define-fun .def_306 () Bool (<= 0 .def_305))
(define-fun .def_297 () Bool (not env.next))
(define-fun .def_307 () Bool (or .def_297 .def_306))
(define-fun .def_308 () Bool (= _OK_.next .def_307))
(define-fun .def_310 () Bool (and .def_308 .def_309))
(define-fun .def_312 () Bool (and .def_310 .def_311))
(define-fun .def_315 () Bool (and .def_312 .def_314))
(define-fun .def_317 () Bool (and .def_315 .def_316))
(define-fun .def_319 () Bool (and .def_317 .def_318))
(define-fun .def_321 () Bool (and .def_319 .def_320))
(define-fun .def_323 () Bool (and .def_321 .def_322))
(define-fun .def_230 () Bool (= call_Age3.flby call_Age3.age_of_p))
(define-fun .def_228 () Bool (= call_Sofar.flby call_Sofar.Sofar))
(define-fun .def_226 () Bool (= call_Age2.age_of_p call_Age2.flby))
(define-fun .def_224 () Bool (= call_Age.age_of_p call_Age.flby))
(define-fun .def_222 () Bool (= env call_Sofar.Sofar))
(define-fun .def_219 () Bool (= m flby2))
(define-fun .def_217 () Bool (= k flby))
(define-fun .def_211 () Int (* (- 1) call_Age3.age_of_p))
(define-fun .def_212 () Int (+ m .def_211))
(define-fun .def_213 () Int (+ k .def_212))
(define-fun .def_214 () Bool (<= 0 .def_213))
(define-fun .def_205 () Bool (not env))
(define-fun .def_215 () Bool (or .def_205 .def_214))
(define-fun .def_216 () Bool (= _OK_ .def_215))
(define-fun .def_218 () Bool (and .def_216 .def_217))
(define-fun .def_220 () Bool (and .def_218 .def_219))
(define-fun .def_223 () Bool (and .def_220 .def_222))
(define-fun .def_225 () Bool (and .def_223 .def_224))
(define-fun .def_227 () Bool (and .def_225 .def_226))
(define-fun .def_229 () Bool (and .def_227 .def_228))
(define-fun .def_231 () Bool (and .def_229 .def_230))
(define-fun .def_324 () Bool (and .def_231 .def_323))
(define-fun .def_293 () Bool (= call_Age3.ite.next call_Age3.flby.next))
(define-fun .def_286 () Bool (<= call_Age2.age_of_p.next m.next))
(define-fun .def_282 () Bool (<= 1 m.next))
(define-fun .def_280 () Bool (<= 1 k.next))
(define-fun .def_283 () Bool (and .def_280 .def_282))
(define-fun .def_277 () Bool (<= k.next call_Age.age_of_p.next))
(define-fun .def_278 () Bool (not .def_277))
(define-fun .def_279 () Bool (or param_q.next .def_278))
(define-fun .def_284 () Bool (and .def_279 .def_283))
(define-fun .def_287 () Bool (and .def_284 .def_286))
(define-fun .def_288 () Bool (and call_Sofar.Sofar .def_287))
(define-fun .def_290 () Bool (= .def_288 call_Sofar.flby.next))
(define-fun .def_272 () Bool (= call_Age2.ite.next call_Age2.flby.next))
(define-fun .def_269 () Bool (= call_Age.ite.next call_Age.flby.next))
(define-fun .def_264 () Bool (not param_q))
(define-fun .def_261 () Int (* (- 1) call_Age2.ite.next))
(define-fun .def_262 () Int (+ call_Age2.age_of_p .def_261))
(define-fun .def_263 () Bool (= .def_262 (- 2)))
(define-fun .def_265 () Bool (or .def_263 .def_264))
(define-fun .def_259 () Bool (= call_Age2.ite.next 0))
(define-fun .def_260 () Bool (or param_q .def_259))
(define-fun .def_266 () Bool (and .def_260 .def_265))
(define-fun .def_254 () Bool (= call_Age3.ite.next 0))
(define-fun .def_255 () Bool (or param_p .def_254))
(define-fun .def_249 () Int (* (- 1) call_Age3.ite.next))
(define-fun .def_250 () Int (+ call_Age3.age_of_p .def_249))
(define-fun .def_251 () Bool (= .def_250 (- 2)))
(define-fun .def_245 () Bool (not param_p))
(define-fun .def_252 () Bool (or .def_245 .def_251))
(define-fun .def_242 () Int (* (- 1) call_Age.ite.next))
(define-fun .def_243 () Int (+ call_Age.age_of_p .def_242))
(define-fun .def_244 () Bool (= .def_243 (- 2)))
(define-fun .def_246 () Bool (or .def_244 .def_245))
(define-fun .def_239 () Bool (= call_Age.ite.next 0))
(define-fun .def_241 () Bool (or .def_239 param_p))
(define-fun .def_247 () Bool (and .def_241 .def_246))
(define-fun .def_253 () Bool (and .def_247 .def_252))
(define-fun .def_256 () Bool (and .def_253 .def_255))
(define-fun .def_236 () Bool (= m flby2.next))
(define-fun .def_234 () Bool (= k flby.next))
(define-fun .def_237 () Bool (and .def_234 .def_236))
(define-fun .def_257 () Bool (and .def_237 .def_256))
(define-fun .def_267 () Bool (and .def_257 .def_266))
(define-fun .def_270 () Bool (and .def_267 .def_269))
(define-fun .def_273 () Bool (and .def_270 .def_272))
(define-fun .def_291 () Bool (and .def_273 .def_290))
(define-fun .def_294 () Bool (and .def_291 .def_293))
(define-fun .def_325 () Bool (and .def_294 .def_324))
(assert .def_325)
